
Gurobi 9.5.2 (mac64[arm]) logging started Mon Apr 24 19:29:54 2023

Set parameter LogFile to value "Java/output/pure_mip/scenario_seed_3_nJob_20_machineCount_1/mip_increment_1/log.txt"
Gurobi Optimizer version 9.5.2 build v9.5.2rc0 (mac64[arm])
Thread count: 8 physical cores, 8 logical processors, using up to 8 threads
Optimize a model with 1092 rows, 9185 columns and 107922 nonzeros
Model fingerprint: 0xaeb80837
Variable types: 0 continuous, 9185 integer (9185 binary)
Coefficient statistics:
  Matrix range     [1e+00, 2e+02]
  Objective range  [6e+00, 3e+06]
  Bounds range     [1e+00, 1e+00]
  RHS range        [1e+00, 1e+00]
Presolve removed 74 rows and 1251 columns
Presolve time: 0.12s
Presolved: 1018 rows, 7934 columns, 92042 nonzeros
Variable types: 0 continuous, 7934 integer (7924 binary)

Root relaxation: objective 8.751005e+04, 5032 iterations, 0.24 seconds (0.52 work units)

    Nodes    |    Current Node    |     Objective Bounds      |     Work
 Expl Unexpl |  Obj  Depth IntInf | Incumbent    BestBd   Gap | It/Node Time

     0     0 87510.0498    0  156          - 87510.0498      -     -    0s
     0     0 88471.2060    0  219          - 88471.2060      -     -    0s
     0     0 89287.4323    0  240          - 89287.4323      -     -    0s
     0     0 89287.4983    0  243          - 89287.4983      -     -    0s
     0     0 98266.1626    0  291          - 98266.1626      -     -    1s
     0     0 100907.573    0  298          - 100907.573      -     -    1s
     0     0 101688.980    0  310          - 101688.980      -     -    1s
     0     0 101715.867    0  322          - 101715.867      -     -    1s
     0     0 101716.385    0  320          - 101716.385      -     -    1s
     0     0 107909.198    0  348          - 107909.198      -     -    2s
H    0     0                    186278.00000 112383.244  39.7%     -    2s
H    0     0                    180949.00000 112383.244  37.9%     -    2s
     0     0 112383.244    0  306 180949.000 112383.244  37.9%     -    2s
     0     0 113066.347    0  340 180949.000 113066.347  37.5%     -    3s
     0     0 113291.971    0  351 180949.000 113291.971  37.4%     -    3s
     0     0 113334.964    0  348 180949.000 113334.964  37.4%     -    3s
     0     0 113334.964    0  352 180949.000 113334.964  37.4%     -    3s
     0     0 121263.705    0  369 180949.000 121263.705  33.0%     -    4s
H    0     0                    180948.00000 121263.705  33.0%     -    4s
     0     0 130564.953    0  370 180948.000 130564.953  27.8%     -    4s
     0     0 130901.190    0  385 180948.000 130901.190  27.7%     -    4s
H    0     0                    180930.00000 130954.589  27.6%     -    4s
H    0     0                    180923.00000 130954.589  27.6%     -    4s
     0     0 130954.589    0  392 180923.000 130954.589  27.6%     -    4s
     0     0 130960.912    0  390 180923.000 130960.912  27.6%     -    5s
     0     0 135776.254    0  410 180923.000 135776.254  25.0%     -    5s
     0     0 135776.254    0  167 180923.000 135776.254  25.0%     -    5s
     0     0 135776.254    0  306 180923.000 135776.254  25.0%     -    6s
     0     0 135776.254    0  330 180923.000 135776.254  25.0%     -    6s
     0     0 137192.922    0  339 180923.000 137192.922  24.2%     -    7s
     0     0 137333.035    0  351 180923.000 137333.035  24.1%     -    7s
     0     0 137396.497    0  342 180923.000 137396.497  24.1%     -    7s
     0     0 137404.262    0  357 180923.000 137404.262  24.1%     -    7s
     0     0 137406.656    0  357 180923.000 137406.656  24.1%     -    7s
     0     0 144152.304    0  420 180923.000 144152.304  20.3%     -    7s
H    0     0                    166905.00000 144152.304  13.6%     -    7s
     0     0 144797.867    0  401 166905.000 144797.867  13.2%     -    7s
     0     0 144964.244    0  399 166905.000 144964.244  13.1%     -    7s
     0     0 144970.925    0  392 166905.000 144970.925  13.1%     -    8s
H    0     0                    163825.00000 144970.925  11.5%     -    8s
     0     0 149960.129    0  382 163825.000 149960.129  8.46%     -    8s
H    0     0                    154373.00000 149960.129  2.86%     -    8s
     0     0 153618.073    0  338 154373.000 153618.073  0.49%     -    9s
     0     0 153713.663    0  339 154373.000 153713.663  0.43%     -    9s
     0     0 153734.999    0  346 154373.000 153734.999  0.41%     -    9s
     0     0 153847.500    0   47 154373.000 153847.500  0.34%     -    9s
     0     0 153847.500    0   64 154373.000 153847.500  0.34%     -    9s
     0     0 154133.958    0   64 154373.000 154133.958  0.15%     -    9s
H    0     0                    154230.00000 154133.958  0.06%     -    9s
     0     0 154157.888    0   66 154230.000 154157.888  0.05%     -    9s
     0     0 154157.888    0   71 154230.000 154157.888  0.05%     -    9s
H    0     0                    154225.00000 154157.888  0.04%     -    9s
     0     0 154165.597    0   68 154225.000 154165.597  0.04%     -    9s
H    0     0                    154223.00000 154165.597  0.04%     -    9s
     0     0 154174.842    0   74 154223.000 154174.842  0.03%     -    9s
H    0     0                    154220.00000 154174.842  0.03%     -    9s
     0     0 154175.022    0   87 154220.000 154175.022  0.03%     -    9s
     0     0 154191.312    0   76 154220.000 154191.312  0.02%     -    9s
H    0     0                    154208.00000 154191.312  0.01%     -    9s
     0     0 154191.400    0   70 154208.000 154191.400  0.01%     -    9s
     0     0 154192.000    0   55 154208.000 154192.000  0.01%     -    9s
     0     0 154192.000    0   45 154208.000 154192.000  0.01%     -    9s
     0     0 154192.000    0   44 154208.000 154192.000  0.01%     -    9s
     0     0     cutoff    0      154208.000 154208.000  0.00%     -    9s

Cutting planes:
  Gomory: 3
  Cover: 3
  Clique: 9
  MIR: 3
  StrongCG: 2
  GUB cover: 7
  Inf proof: 1
  Zero half: 6
  RLT: 1
  Relax-and-lift: 1

Explored 1 nodes (92811 simplex iterations) in 9.59 seconds (20.49 work units)
Thread count was 8 (of 8 available processors)

Solution count 10: 154208 154208 154220 ... 163825

Optimal solution found (tolerance 1.00e-04)
Best objective 1.542080000000e+05, best bound 1.542080000000e+05, gap 0.0000%
